Minimize
b_2 + b_7 + b_16 + b_29 + b_1 + b_6 + b_15 + b_28 + b_0 + b_5 + b_14 + b_27
Subject To
b_0 + b_1 + b_2 + b_3 + b_4 + b_5 + b_6 + b_7 + b_8 + b_9 + b_10 + b_11 + b_12 + b_13 + b_14 + b_15 + b_16 + b_17 + b_18 + b_19 + b_20 + b_21 + b_22 + b_23 + b_24 + b_25 + b_26 + b_27 + b_28 + b_29 + b_30 + b_31 + b_32 + b_33 >= 1
b_31 + b_32 + b_34 - 2 d_0 >= 0
d_0 - b_31 >= 0
d_0 - b_32 >= 0
d_0 - b_34 >= 0
b_32 + b_2 + b_35 - 2 d_1 >= 0
d_1 - b_32 >= 0
d_1 - b_2 >= 0
d_1 - b_35 >= 0
b_33 + b_7 + b_36 - 2 d_2 >= 0
d_2 - b_33 >= 0
d_2 - b_7 >= 0
d_2 - b_36 >= 0
b_35 + b_36 + b_37 + b_38 - 3 d_3 >= 0
d_3 - b_35 >= 0
d_3 - b_36 >= 0
d_3 - b_37 >= 0
d_3 - b_38 >= 0
b_37 + b_16 + b_39 - 2 d_4 >= 0
d_4 - b_37 >= 0
d_4 - b_16 >= 0
d_4 - b_39 >= 0
b_38 + b_29 + b_40 - 2 d_5 >= 0
d_5 - b_38 >= 0
d_5 - b_29 >= 0
d_5 - b_40 >= 0
b_2 + b_6 + b_41 - 2 d_6 >= 0
d_6 - b_2 >= 0
d_6 - b_6 >= 0
d_6 - b_41 >= 0
b_7 + b_15 + b_42 - 2 d_7 >= 0
d_7 - b_7 >= 0
d_7 - b_15 >= 0
d_7 - b_42 >= 0
b_16 + b_28 + b_43 - 2 d_8 >= 0
d_8 - b_16 >= 0
d_8 - b_28 >= 0
d_8 - b_43 >= 0
b_30 + b_39 + b_44 - 2 d_9 >= 0
d_9 - b_30 >= 0
d_9 - b_39 >= 0
d_9 - b_44 >= 0
b_39 + b_1 + b_45 - 2 d_10 >= 0
d_10 - b_39 >= 0
d_10 - b_1 >= 0
d_10 - b_45 >= 0
b_40 + b_6 + b_46 - 2 d_11 >= 0
d_11 - b_40 >= 0
d_11 - b_6 >= 0
d_11 - b_46 >= 0
b_45 + b_46 + b_47 + b_48 - 3 d_12 >= 0
d_12 - b_45 >= 0
d_12 - b_46 >= 0
d_12 - b_47 >= 0
d_12 - b_48 >= 0
b_47 + b_15 + b_49 - 2 d_13 >= 0
d_13 - b_47 >= 0
d_13 - b_15 >= 0
d_13 - b_49 >= 0
b_48 + b_28 + b_50 - 2 d_14 >= 0
d_14 - b_48 >= 0
d_14 - b_28 >= 0
d_14 - b_50 >= 0
b_1 + b_5 + b_51 - 2 d_15 >= 0
d_15 - b_1 >= 0
d_15 - b_5 >= 0
d_15 - b_51 >= 0
b_6 + b_14 + b_52 - 2 d_16 >= 0
d_16 - b_6 >= 0
d_16 - b_14 >= 0
d_16 - b_52 >= 0
b_15 + b_27 + b_53 - 2 d_17 >= 0
d_17 - b_15 >= 0
d_17 - b_27 >= 0
d_17 - b_53 >= 0
Binary
b_0
b_1
b_2
b_3
b_4
b_5
b_6
b_7
b_8
b_9
b_10
b_11
b_12
b_13
b_14
b_15
b_16
b_17
b_18
b_19
b_20
b_21
b_22
b_23
b_24
b_25
b_26
b_27
b_28
b_29
b_30
b_31
b_32
b_33
b_34
b_35
b_36
b_37
b_38
b_39
b_40
b_41
b_42
b_43
b_44
b_45
b_46
b_47
b_48
b_49
b_50
b_51
b_52
b_53
d_0
d_1
d_2
d_3
d_4
d_5
d_6
d_7
d_8
d_9
d_10
d_11
d_12
d_13
d_14
d_15
d_16
d_17
END